2355.38
0 11 16 22 13 12 9 8 7 53 1 3 10 0
0 14 15 18 20 24 27 19 26 73 72 56 0
0 28 39 32 36 34 23 0
0 29 31 74 0
0 45 33 41 30 35 40 17 21 61 5 6 0
0 65 25 48 42 38 49 44 46 51 2 64 54 58 0
0 68 70 62 47 55 50 4 0
0 67 66 69 43 37 63 52 75 0
0 57 60 59 71 0
